DATASET = "thpack3";
INSTANCE = "078";

WIDTH = 233;
HEIGHT = 220;
LENGTH = 587;

NO_OF_SHAPES = 8;
size = [|
  105,68,42 |
  75,37,24 |
  79,73,26 |
  95,53,38 |
  50,41,40 |
  80,59,52 |
  90,74,35 |
  87,60,60 |
|];

verticality = [|
  0,1,1 |
  0,1,1 |
  0,0,1 |
  0,1,1 |
  1,1,1 |
  1,1,1 |
  0,0,1 |
  1,1,1 |
|];

box_count = [
  19,
  24,
  16,
  17,
  21,
  19,
  19,
  20,
];
